%Scalars
Students=80;
Disciplines=12;
Hospitals=2;
Duration=2;
Horizon=24;
Groups=2;
MaxDiscPerHosp=11;
%Data structures
DiscGroup = [1,1,1,1,1,1,2,2,2,2,2,2];

StudDiscGroup =[|
1, 1 |
5, 2 |
3, 1 |
1, 4 |
3, 0 |
3, 6 |
6, 5 |
4, 3 |
0, 1 |
1, 1 |
2, 5 |
1, 1 |
3, 1 |
4, 3 |
5, 1 |
1, 0 |
5, 0 |
5, 5 |
4, 1 |
3, 2 |
6, 0 |
6, 1 |
2, 4 |
2, 1 |
4, 5 |
2, 0 |
3, 1 |
4, 2 |
3, 4 |
4, 4 |
2, 2 |
3, 6 |
1, 3 |
0, 3 |
4, 1 |
1, 3 |
6, 1 |
0, 4 |
3, 3 |
4, 2 |
5, 4 |
1, 2 |
3, 2 |
1, 3 |
0, 2 |
4, 2 |
3, 6 |
5, 1 |
6, 5 |
5, 3 |
6, 1 |
5, 4 |
3, 2 |
2, 2 |
4, 6 |
1, 3 |
3, 5 |
3, 4 |
0, 5 |
0, 2 |
3, 0 |
0, 1 |
6, 3 |
1, 5 |
1, 1 |
0, 6 |
1, 4 |
4, 5 |
4, 3 |
0, 1 |
2, 4 |
4, 3 |
0, 2 |
2, 6 |
3, 5 |
4, 4 |
0, 6 |
0, 5 |
6, 6 |
4, 4 |];

AllowedDisc =[|
1, 1, 1, 1, 1, 1, 1, 1, 1, 1, 1, 1 |
1, 1, 1, 1, 1, 1, 1, 1, 1, 1, 1, 1 |
1, 1, 1, 1, 1, 1, 1, 1, 1, 1, 1, 1 |
1, 1, 1, 1, 1, 1, 1, 1, 1, 1, 1, 1 |
1, 1, 1, 1, 1, 1, 1, 1, 1, 1, 1, 1 |
1, 1, 1, 1, 1, 1, 1, 1, 1, 1, 1, 1 |
1, 1, 1, 1, 1, 1, 1, 1, 1, 1, 1, 1 |
1, 1, 1, 1, 1, 1, 1, 1, 1, 1, 1, 1 |
1, 1, 1, 1, 1, 1, 1, 1, 1, 1, 1, 1 |
1, 1, 1, 1, 1, 1, 1, 1, 1, 1, 1, 1 |
1, 1, 1, 1, 1, 1, 1, 1, 1, 1, 1, 1 |
1, 1, 1, 1, 1, 1, 1, 1, 1, 1, 1, 1 |
1, 1, 1, 1, 1, 1, 1, 1, 1, 1, 1, 1 |
1, 1, 1, 1, 1, 1, 1, 1, 1, 1, 1, 1 |
1, 1, 1, 1, 1, 1, 1, 1, 1, 1, 1, 1 |
1, 1, 1, 1, 1, 1, 1, 1, 1, 1, 1, 1 |
1, 1, 1, 1, 1, 1, 1, 1, 1, 1, 1, 1 |
1, 1, 1, 1, 1, 1, 1, 1, 1, 1, 1, 1 |
1, 1, 1, 1, 1, 1, 1, 1, 1, 1, 1, 1 |
1, 1, 1, 1, 1, 1, 1, 1, 1, 1, 1, 1 |
1, 1, 1, 1, 1, 1, 1, 1, 1, 1, 1, 1 |
1, 1, 1, 1, 1, 1, 1, 1, 1, 1, 1, 1 |
1, 1, 1, 1, 1, 1, 1, 1, 1, 1, 1, 1 |
1, 1, 1, 1, 1, 1, 1, 1, 1, 1, 1, 1 |
1, 1, 1, 1, 1, 1, 1, 1, 1, 1, 1, 1 |
1, 1, 1, 1, 1, 1, 1, 1, 1, 1, 1, 1 |
1, 1, 1, 1, 1, 1, 1, 1, 1, 1, 1, 1 |
1, 1, 1, 1, 1, 1, 1, 1, 1, 1, 1, 1 |
1, 1, 1, 1, 1, 1, 1, 1, 1, 1, 1, 1 |
1, 1, 1, 1, 1, 1, 1, 1, 1, 1, 1, 1 |
1, 1, 1, 1, 1, 1, 1, 1, 1, 1, 1, 1 |
1, 1, 1, 1, 1, 1, 1, 1, 1, 1, 1, 1 |
1, 1, 1, 1, 1, 1, 1, 1, 1, 1, 1, 1 |
1, 1, 1, 1, 1, 1, 1, 1, 1, 1, 1, 1 |
1, 1, 1, 1, 1, 1, 1, 1, 1, 1, 1, 1 |
1, 1, 1, 1, 1, 1, 1, 1, 1, 1, 1, 1 |
1, 1, 1, 1, 1, 1, 1, 1, 1, 1, 1, 1 |
1, 1, 1, 1, 1, 1, 1, 1, 1, 1, 1, 1 |
1, 1, 1, 1, 1, 1, 1, 1, 1, 1, 1, 1 |
1, 1, 1, 1, 1, 1, 1, 1, 1, 1, 1, 1 |
1, 1, 1, 1, 1, 1, 1, 1, 1, 1, 1, 1 |
1, 1, 1, 1, 1, 1, 1, 1, 1, 1, 1, 1 |
1, 1, 1, 1, 1, 1, 1, 1, 1, 1, 1, 1 |
1, 1, 1, 1, 1, 1, 1, 1, 1, 1, 1, 1 |
1, 1, 1, 1, 1, 1, 1, 1, 1, 1, 1, 1 |
1, 1, 1, 1, 1, 1, 1, 1, 1, 1, 1, 1 |
1, 1, 1, 1, 1, 1, 1, 1, 1, 1, 1, 1 |
1, 1, 1, 1, 1, 1, 1, 1, 1, 1, 1, 1 |
1, 1, 1, 1, 1, 1, 1, 1, 1, 1, 1, 1 |
1, 1, 1, 1, 1, 1, 1, 1, 1, 1, 1, 1 |
1, 1, 1, 1, 1, 1, 1, 1, 1, 1, 1, 1 |
1, 1, 1, 1, 1, 1, 1, 1, 1, 1, 1, 1 |
1, 1, 1, 1, 1, 1, 1, 1, 1, 1, 1, 1 |
1, 1, 1, 1, 1, 1, 1, 1, 1, 1, 1, 1 |
1, 1, 1, 1, 1, 1, 1, 1, 1, 1, 1, 1 |
1, 1, 1, 1, 1, 1, 1, 1, 1, 1, 1, 1 |
1, 1, 1, 1, 1, 1, 1, 1, 1, 1, 1, 1 |
1, 1, 1, 1, 1, 1, 1, 1, 1, 1, 1, 1 |
1, 1, 1, 1, 1, 1, 1, 1, 1, 1, 1, 1 |
1, 1, 1, 1, 1, 1, 1, 1, 1, 1, 1, 1 |
1, 1, 1, 1, 1, 1, 1, 1, 1, 1, 1, 1 |
1, 1, 1, 1, 1, 1, 1, 1, 1, 1, 1, 1 |
1, 1, 1, 1, 1, 1, 1, 1, 1, 1, 1, 1 |
1, 1, 1, 1, 1, 1, 1, 1, 1, 1, 1, 1 |
1, 1, 1, 1, 1, 1, 1, 1, 1, 1, 1, 1 |
1, 1, 1, 1, 1, 1, 1, 1, 1, 1, 1, 1 |
1, 1, 1, 1, 1, 1, 1, 1, 1, 1, 1, 1 |
1, 1, 1, 1, 1, 1, 1, 1, 1, 1, 1, 1 |
1, 1, 1, 1, 1, 1, 1, 1, 1, 1, 1, 1 |
1, 1, 1, 1, 1, 1, 1, 1, 1, 1, 1, 1 |
1, 1, 1, 1, 1, 1, 1, 1, 1, 1, 1, 1 |
1, 1, 1, 1, 1, 1, 1, 1, 1, 1, 1, 1 |
1, 1, 1, 1, 1, 1, 1, 1, 1, 1, 1, 1 |
1, 1, 1, 1, 1, 1, 1, 1, 1, 1, 1, 1 |
1, 1, 1, 1, 1, 1, 1, 1, 1, 1, 1, 1 |
1, 1, 1, 1, 1, 1, 1, 1, 1, 1, 1, 1 |
1, 1, 1, 1, 1, 1, 1, 1, 1, 1, 1, 1 |
1, 1, 1, 1, 1, 1, 1, 1, 1, 1, 1, 1 |
1, 1, 1, 1, 1, 1, 1, 1, 1, 1, 1, 1 |
1, 1, 1, 1, 1, 1, 1, 1, 1, 1, 1, 1 |];

Precededby =[|
0, 0, 0, 0, 0, 0, 0, 0, 0, 0, 0, 0 |
0, 0, 0, 0, 0, 0, 0, 0, 0, 0, 0, 0 |
0, 0, 0, 0, 0, 0, 0, 0, 0, 0, 0, 0 |
0, 1, 0, 0, 0, 0, 0, 0, 0, 0, 0, 0 |
0, 1, 1, 0, 0, 0, 0, 0, 0, 0, 0, 0 |
0, 0, 1, 0, 0, 0, 0, 0, 0, 0, 0, 0 |
0, 0, 0, 0, 0, 0, 0, 0, 0, 0, 0, 0 |
0, 0, 0, 0, 0, 0, 0, 0, 0, 0, 0, 0 |
0, 0, 0, 0, 0, 0, 0, 0, 0, 0, 0, 0 |
0, 0, 0, 0, 0, 0, 0, 0, 0, 0, 0, 0 |
0, 0, 0, 0, 0, 0, 0, 1, 1, 1, 0, 0 |
0, 0, 0, 0, 0, 0, 0, 1, 1, 1, 1, 0 |];

Availability =[|
1, 1, 0, 0, 1, 1, 1, 1, 1, 1, 0, 0, 1, 1, 1, 1, 1, 1, 1, 1, 0, 0, 1, 1 |
1, 1, 1, 1, 1, 1, 0, 0, 1, 1, 1, 1, 1, 1, 1, 1, 1, 1, 1, 1, 1, 1, 1, 1 |
1, 1, 1, 1, 1, 1, 1, 1, 1, 1, 0, 0, 1, 1, 0, 0, 1, 1, 0, 0, 1, 1, 1, 1 |
1, 1, 1, 1, 1, 1, 0, 0, 0, 0, 1, 1, 1, 1, 0, 0, 1, 1, 0, 0, 0, 0, 1, 1 |
1, 1, 0, 0, 1, 1, 1, 1, 1, 1, 1, 1, 0, 0, 1, 1, 0, 0, 0, 0, 0, 0, 1, 1 |
1, 1, 1, 1, 1, 1, 1, 1, 1, 1, 0, 0, 1, 1, 1, 1, 1, 1, 1, 1, 1, 1, 1, 1 |
1, 1, 1, 1, 1, 1, 1, 1, 1, 1, 1, 1, 1, 1, 1, 1, 1, 1, 1, 1, 1, 1, 1, 1 |
1, 1, 1, 1, 0, 0, 1, 1, 1, 1, 1, 1, 1, 1, 0, 0, 1, 1, 1, 1, 0, 0, 1, 1 |
1, 1, 1, 1, 0, 0, 1, 1, 1, 1, 0, 0, 1, 1, 1, 1, 0, 0, 1, 1, 0, 0, 1, 1 |
1, 1, 0, 0, 1, 1, 1, 1, 0, 0, 0, 0, 1, 1, 0, 0, 0, 0, 0, 0, 0, 0, 1, 1 |
1, 1, 1, 1, 1, 1, 1, 1, 1, 1, 1, 1, 0, 0, 1, 1, 1, 1, 1, 1, 1, 1, 1, 1 |
1, 1, 1, 1, 1, 1, 0, 0, 1, 1, 1, 1, 1, 1, 0, 0, 1, 1, 1, 1, 1, 1, 1, 1 |
1, 1, 1, 1, 1, 1, 1, 1, 1, 1, 0, 0, 1, 1, 1, 1, 0, 0, 1, 1, 1, 1, 1, 1 |
1, 1, 0, 0, 1, 1, 1, 1, 1, 1, 1, 1, 0, 0, 0, 0, 1, 1, 1, 1, 1, 1, 1, 1 |
1, 1, 1, 1, 1, 1, 1, 1, 1, 1, 1, 1, 0, 0, 0, 0, 1, 1, 1, 1, 1, 1, 1, 1 |
0, 0, 1, 1, 0, 0, 0, 0, 0, 0, 1, 1, 0, 0, 1, 1, 0, 0, 1, 1, 0, 0, 1, 1 |
1, 1, 1, 1, 1, 1, 0, 0, 0, 0, 1, 1, 1, 1, 0, 0, 0, 0, 1, 1, 1, 1, 0, 0 |
0, 0, 1, 1, 1, 1, 1, 1, 1, 1, 1, 1, 0, 0, 1, 1, 1, 1, 1, 1, 1, 1, 1, 1 |
0, 0, 0, 0, 1, 1, 1, 1, 1, 1, 0, 0, 1, 1, 0, 0, 0, 0, 1, 1, 1, 1, 0, 0 |
1, 1, 1, 1, 1, 1, 1, 1, 1, 1, 1, 1, 1, 1, 1, 1, 1, 1, 1, 1, 1, 1, 1, 1 |
1, 1, 1, 1, 1, 1, 1, 1, 1, 1, 1, 1, 1, 1, 1, 1, 1, 1, 1, 1, 1, 1, 1, 1 |
1, 1, 1, 1, 1, 1, 1, 1, 1, 1, 1, 1, 1, 1, 1, 1, 1, 1, 1, 1, 1, 1, 1, 1 |
1, 1, 1, 1, 1, 1, 1, 1, 1, 1, 1, 1, 1, 1, 1, 1, 1, 1, 1, 1, 1, 1, 1, 1 |
0, 0, 1, 1, 0, 0, 0, 0, 1, 1, 1, 1, 1, 1, 1, 1, 1, 1, 0, 0, 1, 1, 1, 1 |
1, 1, 1, 1, 1, 1, 1, 1, 1, 1, 1, 1, 1, 1, 1, 1, 1, 1, 1, 1, 1, 1, 1, 1 |
0, 0, 1, 1, 1, 1, 1, 1, 0, 0, 1, 1, 1, 1, 1, 1, 1, 1, 1, 1, 1, 1, 1, 1 |
1, 1, 1, 1, 1, 1, 1, 1, 0, 0, 0, 0, 1, 1, 1, 1, 1, 1, 0, 0, 1, 1, 1, 1 |
1, 1, 1, 1, 0, 0, 1, 1, 1, 1, 1, 1, 1, 1, 1, 1, 1, 1, 0, 0, 1, 1, 1, 1 |
1, 1, 1, 1, 1, 1, 1, 1, 1, 1, 1, 1, 1, 1, 1, 1, 1, 1, 1, 1, 1, 1, 1, 1 |
1, 1, 1, 1, 1, 1, 1, 1, 1, 1, 1, 1, 1, 1, 1, 1, 1, 1, 1, 1, 1, 1, 1, 1 |
0, 0, 1, 1, 0, 0, 1, 1, 1, 1, 1, 1, 1, 1, 0, 0, 0, 0, 0, 0, 0, 0, 1, 1 |
0, 0, 1, 1, 1, 1, 0, 0, 1, 1, 1, 1, 1, 1, 1, 1, 1, 1, 1, 1, 1, 1, 0, 0 |
1, 1, 0, 0, 0, 0, 1, 1, 1, 1, 0, 0, 1, 1, 1, 1, 1, 1, 1, 1, 0, 0, 1, 1 |
1, 1, 1, 1, 1, 1, 1, 1, 1, 1, 1, 1, 1, 1, 1, 1, 1, 1, 1, 1, 1, 1, 1, 1 |
1, 1, 1, 1, 1, 1, 1, 1, 0, 0, 1, 1, 1, 1, 1, 1, 1, 1, 0, 0, 1, 1, 1, 1 |
1, 1, 1, 1, 1, 1, 1, 1, 1, 1, 1, 1, 1, 1, 1, 1, 1, 1, 0, 0, 1, 1, 0, 0 |
0, 0, 1, 1, 1, 1, 1, 1, 1, 1, 1, 1, 1, 1, 1, 1, 1, 1, 1, 1, 1, 1, 1, 1 |
1, 1, 0, 0, 0, 0, 0, 0, 1, 1, 1, 1, 0, 0, 1, 1, 0, 0, 0, 0, 1, 1, 0, 0 |
0, 0, 1, 1, 1, 1, 1, 1, 0, 0, 1, 1, 1, 1, 0, 0, 0, 0, 1, 1, 0, 0, 1, 1 |
1, 1, 1, 1, 1, 1, 1, 1, 1, 1, 1, 1, 1, 1, 1, 1, 1, 1, 1, 1, 1, 1, 1, 1 |
1, 1, 1, 1, 1, 1, 1, 1, 1, 1, 0, 0, 1, 1, 1, 1, 1, 1, 1, 1, 1, 1, 1, 1 |
1, 1, 1, 1, 0, 0, 0, 0, 1, 1, 1, 1, 1, 1, 1, 1, 1, 1, 1, 1, 0, 0, 1, 1 |
1, 1, 1, 1, 1, 1, 1, 1, 1, 1, 1, 1, 1, 1, 1, 1, 1, 1, 1, 1, 0, 0, 1, 1 |
1, 1, 0, 0, 0, 0, 1, 1, 1, 1, 1, 1, 1, 1, 1, 1, 1, 1, 1, 1, 0, 0, 1, 1 |
1, 1, 1, 1, 0, 0, 1, 1, 1, 1, 1, 1, 0, 0, 1, 1, 1, 1, 0, 0, 1, 1, 1, 1 |
0, 0, 0, 0, 1, 1, 1, 1, 1, 1, 1, 1, 1, 1, 1, 1, 1, 1, 1, 1, 0, 0, 1, 1 |
0, 0, 0, 0, 1, 1, 1, 1, 1, 1, 1, 1, 1, 1, 1, 1, 1, 1, 1, 1, 1, 1, 1, 1 |
1, 1, 1, 1, 1, 1, 1, 1, 0, 0, 1, 1, 0, 0, 0, 0, 1, 1, 1, 1, 0, 0, 1, 1 |
1, 1, 1, 1, 1, 1, 1, 1, 1, 1, 1, 1, 1, 1, 1, 1, 1, 1, 1, 1, 1, 1, 0, 0 |
1, 1, 1, 1, 0, 0, 1, 1, 1, 1, 1, 1, 1, 1, 1, 1, 0, 0, 1, 1, 1, 1, 0, 0 |
1, 1, 1, 1, 0, 0, 1, 1, 1, 1, 1, 1, 0, 0, 0, 0, 1, 1, 0, 0, 1, 1, 1, 1 |
0, 0, 1, 1, 0, 0, 1, 1, 1, 1, 1, 1, 0, 0, 1, 1, 1, 1, 1, 1, 1, 1, 1, 1 |
0, 0, 1, 1, 1, 1, 0, 0, 0, 0, 1, 1, 0, 0, 1, 1, 0, 0, 1, 1, 1, 1, 1, 1 |
1, 1, 1, 1, 1, 1, 1, 1, 1, 1, 1, 1, 0, 0, 1, 1, 1, 1, 0, 0, 0, 0, 0, 0 |
1, 1, 1, 1, 1, 1, 1, 1, 1, 1, 1, 1, 1, 1, 1, 1, 1, 1, 1, 1, 1, 1, 1, 1 |
1, 1, 1, 1, 1, 1, 1, 1, 1, 1, 1, 1, 1, 1, 0, 0, 1, 1, 1, 1, 1, 1, 1, 1 |
0, 0, 1, 1, 1, 1, 1, 1, 1, 1, 1, 1, 1, 1, 1, 1, 0, 0, 1, 1, 1, 1, 1, 1 |
1, 1, 1, 1, 1, 1, 0, 0, 1, 1, 0, 0, 0, 0, 1, 1, 0, 0, 1, 1, 1, 1, 1, 1 |
0, 0, 1, 1, 1, 1, 1, 1, 1, 1, 1, 1, 1, 1, 1, 1, 1, 1, 1, 1, 1, 1, 0, 0 |
1, 1, 1, 1, 0, 0, 0, 0, 1, 1, 1, 1, 0, 0, 1, 1, 1, 1, 1, 1, 1, 1, 0, 0 |
0, 0, 1, 1, 0, 0, 0, 0, 1, 1, 0, 0, 1, 1, 1, 1, 0, 0, 1, 1, 1, 1, 0, 0 |
1, 1, 0, 0, 1, 1, 0, 0, 1, 1, 1, 1, 1, 1, 0, 0, 1, 1, 0, 0, 1, 1, 1, 1 |
1, 1, 1, 1, 1, 1, 1, 1, 1, 1, 1, 1, 1, 1, 1, 1, 1, 1, 1, 1, 1, 1, 1, 1 |
0, 0, 1, 1, 1, 1, 1, 1, 1, 1, 1, 1, 0, 0, 1, 1, 1, 1, 1, 1, 1, 1, 1, 1 |
0, 0, 1, 1, 0, 0, 1, 1, 0, 0, 1, 1, 0, 0, 1, 1, 0, 0, 1, 1, 0, 0, 1, 1 |
1, 1, 1, 1, 1, 1, 1, 1, 1, 1, 1, 1, 1, 1, 1, 1, 0, 0, 1, 1, 1, 1, 0, 0 |
0, 0, 1, 1, 1, 1, 1, 1, 1, 1, 1, 1, 0, 0, 1, 1, 1, 1, 1, 1, 1, 1, 0, 0 |
1, 1, 1, 1, 1, 1, 1, 1, 1, 1, 0, 0, 1, 1, 1, 1, 1, 1, 1, 1, 1, 1, 1, 1 |
0, 0, 1, 1, 1, 1, 1, 1, 0, 0, 0, 0, 1, 1, 1, 1, 1, 1, 1, 1, 0, 0, 1, 1 |
1, 1, 1, 1, 1, 1, 1, 1, 1, 1, 1, 1, 1, 1, 1, 1, 1, 1, 1, 1, 1, 1, 1, 1 |
1, 1, 0, 0, 1, 1, 0, 0, 1, 1, 1, 1, 1, 1, 0, 0, 1, 1, 1, 1, 1, 1, 0, 0 |
1, 1, 1, 1, 1, 1, 1, 1, 1, 1, 1, 1, 1, 1, 1, 1, 1, 1, 1, 1, 1, 1, 0, 0 |
1, 1, 1, 1, 1, 1, 0, 0, 0, 0, 1, 1, 1, 1, 0, 0, 1, 1, 1, 1, 1, 1, 0, 0 |
1, 1, 1, 1, 0, 0, 1, 1, 1, 1, 1, 1, 0, 0, 1, 1, 1, 1, 0, 0, 1, 1, 1, 1 |
1, 1, 1, 1, 1, 1, 0, 0, 1, 1, 1, 1, 1, 1, 1, 1, 1, 1, 1, 1, 1, 1, 0, 0 |
1, 1, 1, 1, 1, 1, 1, 1, 1, 1, 1, 1, 1, 1, 1, 1, 1, 1, 1, 1, 1, 1, 1, 1 |
1, 1, 1, 1, 1, 1, 1, 1, 1, 1, 1, 1, 1, 1, 1, 1, 1, 1, 1, 1, 1, 1, 0, 0 |
0, 0, 1, 1, 0, 0, 0, 0, 1, 1, 0, 0, 0, 0, 1, 1, 1, 1, 1, 1, 1, 1, 0, 0 |
1, 1, 1, 1, 1, 1, 1, 1, 1, 1, 1, 1, 1, 1, 1, 1, 1, 1, 1, 1, 1, 1, 1, 1 |
1, 1, 1, 1, 1, 1, 1, 1, 1, 1, 1, 1, 1, 1, 1, 1, 1, 1, 0, 0, 0, 0, 0, 0 |];

Ability =
 array3d(1..Students,1..Hospitals,1..Disciplines,[
1, 1, 1, 1, 1, 1, 1, 1, 1, 1, 1, 1 ,
1, 1, 1, 1, 1, 1, 1, 1, 1, 1, 1, 1 ,
1, 1, 1, 1, 1, 1, 1, 1, 1, 1, 1, 1 ,
1, 1, 1, 1, 1, 1, 1, 1, 1, 0, 1, 0 ,
1, 1, 1, 1, 1, 0, 1, 1, 1, 1, 1, 1 ,
1, 1, 1, 1, 1, 1, 1, 1, 1, 1, 1, 1 ,
1, 1, 1, 1, 1, 1, 1, 1, 1, 1, 0, 1 ,
1, 1, 1, 1, 1, 1, 1, 1, 1, 1, 1, 1 ,
1, 1, 1, 0, 1, 1, 1, 1, 1, 1, 1, 1 ,
1, 1, 1, 1, 1, 1, 1, 1, 1, 1, 1, 1 ,
1, 1, 1, 1, 1, 1, 1, 1, 1, 1, 1, 1 ,
1, 1, 1, 1, 1, 1, 1, 1, 1, 1, 1, 0 ,
1, 1, 1, 1, 1, 1, 1, 1, 1, 1, 1, 1 ,
1, 1, 1, 1, 1, 1, 1, 1, 1, 1, 1, 1 ,
1, 1, 1, 1, 1, 0, 1, 1, 1, 1, 1, 1 ,
1, 0, 1, 1, 1, 1, 1, 1, 1, 1, 1, 1 ,
1, 1, 1, 1, 1, 1, 1, 1, 1, 1, 1, 1 ,
1, 1, 1, 1, 0, 1, 1, 1, 1, 1, 1, 0 ,
1, 1, 0, 1, 1, 1, 1, 1, 1, 1, 1, 1 ,
1, 1, 1, 1, 1, 1, 1, 1, 1, 1, 1, 1 ,
1, 1, 1, 1, 1, 0, 1, 1, 1, 1, 1, 1 ,
1, 1, 1, 1, 1, 1, 1, 1, 0, 1, 1, 1 ,
1, 1, 1, 0, 0, 1, 1, 1, 1, 1, 1, 1 ,
1, 1, 1, 1, 1, 1, 0, 1, 1, 1, 1, 1 ,
1, 1, 1, 1, 1, 1, 1, 1, 1, 1, 1, 1 ,
1, 1, 1, 1, 1, 1, 1, 1, 1, 1, 1, 1 ,
1, 1, 1, 1, 1, 1, 1, 1, 1, 1, 1, 1 ,
1, 1, 1, 1, 1, 1, 1, 1, 1, 1, 1, 1 ,
1, 1, 1, 1, 1, 0, 1, 1, 0, 1, 1, 1 ,
1, 1, 1, 1, 1, 1, 1, 1, 1, 1, 1, 1 ,
1, 0, 0, 1, 1, 1, 1, 1, 1, 1, 1, 1 ,
1, 1, 1, 0, 1, 1, 1, 1, 1, 1, 1, 1 ,
1, 1, 1, 1, 1, 1, 1, 1, 1, 1, 0, 0 ,
1, 1, 1, 1, 1, 1, 1, 1, 1, 1, 1, 1 ,
1, 1, 1, 1, 1, 1, 1, 1, 1, 1, 1, 1 ,
1, 1, 1, 1, 1, 1, 1, 1, 0, 1, 1, 1 ,
1, 0, 1, 1, 1, 1, 1, 1, 1, 1, 1, 1 ,
1, 1, 1, 1, 1, 1, 1, 1, 1, 1, 1, 1 ,
1, 1, 1, 1, 1, 0, 1, 1, 1, 1, 1, 1 ,
1, 1, 0, 1, 1, 1, 1, 1, 1, 0, 1, 1 ,
1, 1, 1, 1, 1, 1, 1, 1, 1, 1, 1, 1 ,
1, 1, 1, 1, 1, 1, 1, 1, 1, 1, 1, 1 ,
1, 1, 1, 0, 1, 1, 1, 1, 1, 1, 1, 1 ,
1, 1, 1, 1, 1, 1, 1, 1, 1, 1, 1, 1 ,
1, 1, 1, 1, 1, 1, 1, 1, 1, 1, 1, 1 ,
1, 1, 1, 1, 1, 1, 0, 0, 1, 1, 1, 1 ,
1, 1, 1, 1, 1, 1, 1, 1, 0, 1, 1, 1 ,
1, 1, 1, 0, 1, 1, 1, 1, 1, 1, 1, 1 ,
1, 1, 1, 1, 1, 1, 1, 1, 1, 1, 1, 1 ,
1, 1, 1, 1, 1, 1, 1, 1, 1, 1, 1, 1 ,
1, 1, 1, 1, 1, 1, 1, 1, 1, 1, 1, 1 ,
1, 1, 1, 1, 1, 1, 1, 1, 1, 1, 1, 1 ,
1, 1, 1, 1, 1, 1, 1, 0, 1, 1, 1, 1 ,
0, 1, 1, 1, 1, 1, 1, 1, 1, 1, 1, 1 ,
1, 1, 1, 1, 1, 1, 1, 1, 1, 1, 1, 1 ,
1, 1, 1, 1, 1, 1, 1, 1, 1, 1, 1, 1 ,
1, 1, 1, 1, 1, 1, 1, 1, 1, 1, 1, 1 ,
1, 1, 1, 1, 1, 1, 1, 1, 1, 1, 1, 0 ,
1, 1, 1, 1, 1, 1, 1, 1, 1, 1, 1, 1 ,
1, 0, 1, 1, 1, 1, 1, 1, 1, 1, 1, 1 ,
1, 1, 1, 1, 1, 1, 1, 1, 1, 1, 1, 1 ,
1, 1, 1, 1, 1, 1, 1, 1, 1, 1, 1, 1 ,
1, 1, 1, 1, 1, 1, 1, 1, 1, 1, 1, 1 ,
1, 1, 1, 1, 1, 1, 1, 1, 1, 1, 1, 1 ,
1, 1, 1, 1, 1, 1, 1, 1, 1, 1, 1, 1 ,
1, 1, 1, 1, 1, 1, 1, 1, 1, 1, 1, 1 ,
0, 1, 1, 1, 1, 1, 1, 1, 1, 1, 1, 1 ,
1, 0, 1, 1, 1, 1, 1, 1, 0, 1, 1, 1 ,
1, 1, 1, 1, 1, 1, 1, 1, 1, 1, 1, 1 ,
1, 1, 1, 1, 1, 1, 1, 1, 1, 1, 0, 1 ,
0, 1, 1, 1, 1, 1, 1, 1, 1, 1, 1, 1 ,
1, 1, 1, 1, 1, 1, 0, 1, 1, 1, 1, 1 ,
1, 1, 1, 1, 1, 1, 1, 1, 1, 1, 1, 1 ,
1, 0, 1, 1, 1, 1, 1, 1, 1, 1, 1, 1 ,
1, 1, 1, 1, 1, 1, 1, 1, 1, 0, 1, 1 ,
1, 1, 1, 1, 1, 1, 1, 1, 1, 1, 1, 1 ,
1, 1, 1, 1, 1, 1, 1, 1, 1, 1, 1, 1 ,
1, 1, 1, 1, 1, 1, 1, 1, 1, 1, 1, 1 ,
1, 1, 1, 1, 1, 1, 1, 1, 1, 1, 1, 1 ,
1, 0, 1, 1, 1, 1, 1, 1, 1, 1, 1, 1 ,
1, 1, 1, 1, 1, 1, 1, 1, 1, 1, 1, 1 ,
1, 1, 1, 1, 1, 1, 1, 1, 1, 1, 0, 1 ,
1, 1, 1, 1, 1, 1, 1, 1, 1, 1, 1, 1 ,
1, 1, 1, 1, 1, 1, 1, 1, 1, 1, 1, 0 ,
1, 1, 1, 1, 1, 1, 1, 1, 1, 1, 1, 1 ,
1, 1, 1, 1, 1, 1, 1, 1, 1, 1, 1, 1 ,
1, 1, 1, 1, 1, 1, 1, 1, 1, 1, 1, 1 ,
1, 1, 1, 1, 1, 1, 1, 1, 1, 1, 1, 1 ,
1, 1, 1, 1, 1, 1, 1, 1, 1, 1, 1, 1 ,
0, 1, 1, 1, 1, 1, 1, 1, 1, 1, 1, 1 ,
1, 1, 1, 1, 1, 1, 0, 1, 1, 1, 1, 1 ,
1, 1, 1, 1, 1, 1, 1, 1, 1, 0, 1, 1 ,
1, 1, 1, 1, 1, 1, 0, 1, 1, 1, 1, 1 ,
1, 1, 1, 1, 1, 1, 1, 1, 1, 1, 1, 1 ,
1, 1, 1, 1, 1, 1, 1, 1, 1, 1, 1, 1 ,
1, 1, 1, 1, 1, 1, 1, 1, 1, 1, 1, 1 ,
1, 1, 1, 1, 1, 1, 1, 1, 0, 1, 1, 1 ,
1, 1, 1, 1, 0, 1, 1, 1, 1, 1, 1, 1 ,
1, 1, 1, 1, 1, 1, 1, 1, 1, 1, 1, 1 ,
1, 1, 1, 1, 1, 1, 1, 1, 0, 1, 1, 1 ,
1, 1, 0, 1, 1, 1, 1, 1, 1, 1, 1, 1 ,
1, 1, 1, 1, 1, 1, 1, 1, 1, 1, 1, 1 ,
1, 1, 0, 1, 1, 1, 1, 1, 1, 1, 1, 1 ,
1, 1, 1, 1, 1, 1, 1, 1, 1, 1, 1, 1 ,
1, 1, 1, 1, 1, 1, 1, 1, 1, 1, 1, 1 ,
1, 1, 1, 1, 1, 1, 0, 1, 1, 1, 1, 1 ,
1, 0, 1, 1, 0, 1, 0, 1, 1, 1, 1, 0 ,
1, 1, 1, 1, 1, 1, 1, 1, 1, 1, 1, 1 ,
1, 1, 0, 1, 1, 1, 1, 1, 1, 1, 1, 1 ,
1, 1, 1, 1, 1, 0, 1, 1, 1, 1, 1, 1 ,
1, 1, 1, 1, 1, 1, 1, 1, 1, 1, 1, 1 ,
1, 1, 1, 1, 1, 1, 1, 1, 1, 1, 1, 1 ,
1, 1, 1, 1, 1, 1, 1, 1, 1, 1, 1, 1 ,
1, 1, 1, 1, 1, 1, 1, 1, 1, 1, 1, 1 ,
1, 1, 1, 1, 1, 1, 1, 1, 1, 1, 1, 1 ,
1, 1, 1, 1, 1, 1, 1, 1, 1, 1, 1, 1 ,
1, 1, 1, 1, 1, 1, 1, 1, 1, 1, 1, 1 ,
1, 1, 1, 1, 1, 0, 1, 1, 0, 1, 1, 1 ,
1, 1, 1, 1, 1, 0, 1, 1, 1, 1, 1, 1 ,
0, 1, 1, 0, 1, 1, 1, 1, 1, 0, 1, 1 ,
1, 1, 1, 1, 1, 1, 1, 1, 1, 1, 1, 1 ,
1, 1, 1, 1, 1, 1, 1, 1, 1, 1, 1, 1 ,
1, 1, 1, 0, 1, 1, 1, 1, 1, 1, 1, 1 ,
1, 1, 1, 1, 1, 1, 1, 1, 1, 1, 1, 1 ,
1, 1, 1, 1, 1, 1, 0, 1, 1, 1, 1, 1 ,
1, 1, 1, 1, 1, 1, 1, 1, 1, 1, 1, 1 ,
1, 1, 1, 1, 1, 1, 1, 1, 1, 1, 1, 1 ,
0, 1, 1, 1, 1, 1, 1, 1, 1, 1, 1, 1 ,
1, 1, 1, 1, 1, 1, 1, 1, 1, 1, 1, 1 ,
1, 1, 1, 1, 1, 1, 1, 1, 1, 1, 1, 1 ,
1, 1, 1, 1, 1, 1, 1, 1, 1, 1, 1, 1 ,
0, 1, 1, 1, 1, 1, 1, 1, 1, 1, 1, 1 ,
1, 1, 1, 1, 1, 1, 1, 1, 1, 1, 1, 1 ,
1, 1, 1, 1, 1, 1, 1, 1, 1, 1, 1, 1 ,
1, 1, 1, 1, 1, 1, 1, 1, 1, 1, 1, 1 ,
1, 1, 1, 1, 1, 1, 1, 1, 1, 1, 1, 1 ,
1, 1, 1, 1, 1, 0, 1, 1, 1, 1, 0, 1 ,
1, 1, 1, 1, 1, 1, 1, 1, 1, 1, 1, 0 ,
0, 1, 1, 1, 1, 1, 1, 1, 1, 1, 1, 1 ,
1, 1, 1, 0, 1, 1, 1, 1, 1, 1, 1, 1 ,
1, 1, 1, 1, 1, 1, 1, 1, 1, 1, 1, 1 ,
1, 1, 1, 1, 1, 1, 1, 1, 1, 1, 1, 1 ,
1, 1, 1, 1, 0, 1, 1, 1, 1, 1, 1, 1 ,
1, 1, 1, 1, 1, 1, 1, 1, 0, 1, 1, 1 ,
1, 1, 1, 0, 1, 1, 1, 1, 1, 0, 1, 1 ,
1, 1, 1, 1, 1, 1, 1, 1, 1, 1, 1, 1 ,
1, 1, 0, 1, 1, 1, 1, 0, 1, 1, 1, 1 ,
1, 1, 1, 1, 1, 1, 1, 1, 1, 1, 1, 1 ,
1, 0, 1, 1, 1, 1, 1, 1, 0, 1, 1, 1 ,
1, 1, 1, 1, 1, 0, 1, 1, 1, 1, 1, 1 ,
1, 1, 1, 1, 1, 1, 1, 1, 1, 1, 1, 1 ,
1, 1, 1, 1, 1, 1, 1, 1, 1, 1, 1, 1 ,
1, 1, 1, 1, 1, 1, 1, 1, 1, 1, 1, 1 ,
1, 1, 1, 1, 1, 1, 1, 1, 1, 1, 1, 1 ,
1, 1, 1, 1, 1, 1, 1, 1, 1, 1, 1, 1 ,
1, 1, 1, 1, 0, 1, 1, 1, 1, 1, 1, 1 ,
1, 1, 1, 1, 1, 1, 1, 1, 1, 1, 1, 1 ,
1, 1, 1, 0, 1, 1, 1, 1, 1, 1, 1, 1 ,
1, 1, 1, 1, 1, 1, 1, 0, 1, 1, 1, 1 ,
1, 1, 1, 1, 1, 1, 1, 1, 1, 1, 1, 0]);

MaxPosHosp =
 array3d(1..Hospitals, 1..Disciplines, 1..Horizon,[
29, 31, 31, 33, 33, 24, 24, 22, 22, 16, 16, 31, 31, 16, 16, 26, 26, 30, 30, 27, 27, 19, 19, 18 ,
17, 17, 22, 22, 21, 21, 24, 24, 21, 21, 20, 20, 20, 20, 23, 23, 28, 28, 22, 22, 30, 30, 34, 34 ,
27, 31, 31, 29, 29, 32, 32, 19, 19, 24, 24, 27, 27, 25, 25, 28, 28, 28, 28, 23, 23, 27, 27, 16 ,
29, 29, 31, 31, 16, 16, 19, 19, 31, 31, 27, 27, 18, 18, 16, 16, 28, 28, 18, 18, 31, 31, 30, 30 ,
20, 20, 30, 30, 19, 19, 20, 20, 28, 28, 32, 32, 28, 28, 29, 29, 17, 17, 33, 33, 17, 17, 34, 34 ,
31, 29, 29, 34, 34, 26, 26, 17, 17, 34, 34, 18, 18, 22, 22, 20, 20, 30, 30, 29, 29, 26, 26, 24 ,
27, 27, 31, 31, 28, 28, 22, 22, 33, 33, 20, 20, 31, 31, 32, 32, 23, 23, 29, 29, 34, 34, 26, 26 ,
27, 33, 33, 24, 24, 25, 25, 28, 28, 29, 29, 27, 27, 27, 27, 19, 19, 21, 21, 24, 24, 19, 19, 22 ,
21, 19, 19, 17, 17, 16, 16, 24, 24, 33, 33, 32, 32, 24, 24, 19, 19, 31, 31, 27, 27, 31, 31, 16 ,
23, 23, 30, 30, 34, 34, 34, 34, 27, 27, 19, 19, 28, 28, 28, 28, 30, 30, 17, 17, 18, 18, 24, 24 ,
21, 20, 20, 31, 31, 28, 28, 31, 31, 30, 30, 17, 17, 27, 27, 24, 24, 17, 17, 26, 26, 22, 22, 20 ,
17, 17, 27, 27, 28, 28, 24, 24, 17, 17, 27, 27, 27, 27, 33, 33, 26, 26, 33, 33, 27, 27, 18, 18 ,
16, 21, 21, 19, 19, 16, 16, 25, 25, 19, 19, 20, 20, 31, 31, 17, 17, 18, 18, 22, 22, 28, 28, 32 ,
31, 27, 27, 26, 26, 19, 19, 26, 26, 25, 25, 17, 17, 31, 31, 19, 19, 21, 21, 24, 24, 26, 26, 28 ,
21, 22, 22, 25, 25, 22, 22, 32, 32, 18, 18, 26, 26, 30, 30, 30, 30, 28, 28, 19, 19, 24, 24, 33 ,
17, 31, 31, 31, 31, 34, 34, 34, 34, 29, 29, 28, 28, 25, 25, 33, 33, 18, 18, 34, 34, 17, 17, 18 ,
32, 32, 22, 22, 30, 30, 31, 31, 22, 22, 25, 25, 32, 32, 26, 26, 32, 32, 16, 16, 29, 29, 22, 22 ,
29, 23, 23, 27, 27, 28, 28, 22, 22, 21, 21, 20, 20, 34, 34, 30, 30, 26, 26, 23, 23, 16, 16, 19 ,
28, 28, 17, 17, 34, 34, 20, 20, 27, 27, 18, 18, 25, 25, 17, 17, 18, 18, 33, 33, 18, 18, 24, 24 ,
32, 32, 22, 22, 33, 33, 24, 24, 16, 16, 29, 29, 21, 21, 16, 16, 22, 22, 30, 30, 22, 22, 18, 18 ,
29, 29, 32, 32, 18, 18, 17, 17, 25, 25, 32, 32, 17, 17, 30, 30, 27, 27, 17, 17, 33, 33, 34, 34 ,
24, 24, 31, 31, 24, 24, 34, 34, 24, 24, 21, 21, 17, 17, 18, 18, 26, 26, 34, 34, 25, 25, 26, 26 ,
24, 17, 17, 24, 24, 18, 18, 16, 16, 29, 29, 28, 28, 22, 22, 28, 28, 30, 30, 28, 28, 22, 22, 27 ,
28, 24, 24, 28, 28, 17, 17, 26, 26, 28, 28, 24, 24, 23, 23, 26, 26, 25, 25, 26, 26, 26, 26, 19]);

MinPosHosp =
 array3d(1..Hospitals, 1..Disciplines, 1..Horizon,[
0, 0, 0, 0, 0, 0, 0, 0, 0, 0, 0, 0, 0, 0, 0, 0, 0, 0, 0, 0, 0, 0, 0, 0 ,
0, 0, 0, 0, 0, 0, 0, 0, 0, 0, 0, 0, 0, 0, 0, 0, 0, 0, 0, 0, 0, 0, 0, 0 ,
0, 0, 0, 0, 0, 0, 0, 0, 0, 0, 0, 0, 0, 0, 0, 0, 0, 0, 0, 0, 0, 0, 0, 0 ,
0, 0, 0, 0, 0, 0, 0, 0, 0, 0, 0, 0, 0, 0, 0, 0, 0, 0, 0, 0, 0, 0, 0, 0 ,
0, 0, 0, 0, 0, 0, 0, 0, 0, 0, 0, 0, 0, 0, 0, 0, 0, 0, 0, 0, 0, 0, 0, 0 ,
0, 0, 0, 0, 0, 0, 0, 0, 0, 0, 0, 0, 0, 0, 0, 0, 0, 0, 0, 0, 0, 0, 0, 0 ,
0, 0, 0, 0, 0, 0, 0, 0, 0, 0, 0, 0, 0, 0, 0, 0, 0, 0, 0, 0, 0, 0, 0, 0 ,
0, 0, 0, 0, 0, 0, 0, 0, 0, 0, 0, 0, 0, 0, 0, 0, 0, 0, 0, 0, 0, 0, 0, 0 ,
0, 0, 0, 0, 0, 0, 0, 0, 0, 0, 0, 0, 0, 0, 0, 0, 0, 0, 0, 0, 0, 0, 0, 0 ,
0, 0, 0, 0, 0, 0, 0, 0, 0, 0, 0, 0, 0, 0, 0, 0, 0, 0, 0, 0, 0, 0, 0, 0 ,
0, 0, 0, 0, 0, 0, 0, 0, 0, 0, 0, 0, 0, 0, 0, 0, 0, 0, 0, 0, 0, 0, 0, 0 ,
0, 0, 0, 0, 0, 0, 0, 0, 0, 0, 0, 0, 0, 0, 0, 0, 0, 0, 0, 0, 0, 0, 0, 0 ,
0, 3, 0, 0, 0, 0, 1, 1, 0, 0, 1, 0, 0, 0, 0, 0, 0, 0, 0, 0, 0, 0, 0, 0 ,
1, 1, 0, 0, 0, 0, 0, 2, 0, 0, 0, 0, 0, 0, 2, 0, 0, 2, 2, 0, 0, 0, 0, 0 ,
0, 0, 0, 0, 0, 0, 0, 0, 0, 0, 0, 0, 0, 0, 0, 0, 0, 0, 0, 0, 0, 0, 0, 0 ,
0, 0, 0, 0, 0, 0, 0, 0, 0, 0, 0, 0, 0, 0, 0, 0, 0, 0, 0, 0, 0, 0, 0, 3 ,
0, 0, 0, 0, 0, 0, 0, 3, 2, 0, 0, 0, 0, 0, 0, 0, 0, 0, 0, 0, 0, 0, 0, 0 ,
0, 0, 0, 0, 0, 0, 0, 0, 3, 0, 2, 0, 0, 0, 0, 0, 0, 0, 0, 0, 0, 0, 0, 0 ,
0, 0, 0, 0, 2, 0, 0, 0, 0, 0, 0, 0, 0, 0, 0, 0, 0, 0, 0, 3, 1, 0, 0, 0 ,
0, 0, 0, 0, 2, 0, 3, 0, 0, 0, 0, 0, 0, 0, 0, 0, 0, 0, 0, 0, 3, 0, 0, 0 ,
0, 0, 0, 0, 0, 0, 3, 0, 0, 0, 0, 0, 0, 0, 0, 1, 0, 0, 0, 0, 0, 0, 3, 0 ,
0, 0, 2, 0, 0, 0, 0, 0, 0, 0, 0, 0, 0, 2, 0, 0, 0, 0, 0, 0, 0, 0, 0, 0 ,
0, 0, 0, 0, 0, 0, 0, 0, 0, 0, 0, 1, 0, 0, 0, 0, 0, 0, 2, 0, 0, 1, 0, 2 ,
0, 0, 0, 0, 0, 0, 0, 0, 0, 0, 0, 0, 0, 0, 3, 0, 0, 0, 0, 0, 0, 0, 0, 0]);

%W_disc W_hosp W_change W_wait
WeightPref=[|
2,3,-2,-1 |
1,2,-2,-1 |
1,1,-2,-2 |
3,3,-3,-1 |
3,2,-1,-3 |
1,3,-1,-3 |
2,1,-3,-1 |
3,1,-2,-2 |
2,2,-1,-3 |
1,3,-1,-3 |
3,1,-2,-2 |
3,2,-2,-2 |
2,2,-1,-3 |
1,2,-1,-2 |
1,1,-1,-3 |
2,1,-2,-3 |
1,2,-2,-3 |
3,2,-2,-3 |
3,3,-3,-3 |
1,1,-2,-3 |
3,1,-2,-2 |
2,3,-1,-2 |
1,1,-2,-1 |
3,2,-3,-3 |
1,1,-2,-1 |
3,1,-1,-2 |
2,1,-1,-2 |
1,3,-2,-3 |
2,3,-2,-3 |
2,1,-2,-3 |
2,1,-3,-3 |
3,1,-2,-2 |
3,3,-3,-2 |
1,3,-1,-1 |
2,1,-2,-3 |
3,2,-1,-1 |
2,3,-2,-2 |
3,1,-1,-1 |
3,1,-2,-1 |
3,2,-3,-2 |
3,2,-1,-3 |
3,1,-3,-1 |
1,3,-1,-1 |
3,2,-3,-3 |
3,3,-2,-3 |
3,1,-2,-3 |
3,3,-1,-2 |
2,2,-1,-1 |
1,2,-1,-3 |
2,2,-1,-3 |
2,3,-3,-1 |
3,2,-3,-3 |
3,3,-1,-1 |
1,1,-3,-2 |
2,2,-1,-1 |
3,3,-3,-1 |
1,2,-1,-3 |
2,3,-2,-1 |
3,2,-1,-1 |
2,3,-3,-1 |
1,1,-2,-1 |
1,2,-3,-2 |
3,3,-3,-2 |
3,1,-2,-1 |
2,3,-3,-1 |
1,3,-3,-2 |
1,1,-2,-2 |
3,1,-2,-2 |
3,3,-2,-3 |
2,3,-1,-3 |
1,3,-2,-2 |
1,3,-1,-2 |
3,2,-2,-2 |
2,2,-1,-3 |
3,1,-2,-1 |
1,3,-2,-2 |
3,2,-2,-2 |
2,3,-1,-1 |
1,3,-1,-2 |
2,1,-3,-1 |];

PrefStudDisc =[|
2, 5, 4, 4, 4, 4, 3, 5, 4, 1, 5, 5 |
1, 5, 3, 2, 3, 2, 1, 4, 2, 3, 5, 5 |
5, 3, 2, 4, 3, 3, 4, 3, 1, 2, 3, 5 |
2, 2, 1, 1, 2, 4, 1, 4, 4, 2, 4, 1 |
4, 5, 1, 4, 5, 2, 1, 3, 4, 4, 2, 2 |
3, 4, 4, 4, 3, 5, 3, 5, 3, 3, 5, 3 |
5, 4, 3, 1, 3, 3, 1, 5, 3, 5, 4, 5 |
2, 5, 5, 5, 1, 3, 1, 4, 3, 4, 5, 3 |
3, 5, 2, 5, 4, 3, 4, 5, 5, 5, 5, 3 |
3, 4, 4, 3, 5, 4, 1, 2, 4, 5, 4, 2 |
2, 2, 3, 2, 4, 4, 3, 5, 3, 2, 3, 5 |
1, 3, 1, 4, 1, 1, 3, 3, 5, 2, 5, 5 |
3, 2, 5, 4, 4, 4, 2, 2, 4, 5, 1, 4 |
4, 3, 3, 5, 3, 3, 1, 4, 2, 1, 4, 3 |
1, 1, 3, 2, 3, 3, 1, 3, 1, 5, 5, 5 |
4, 5, 2, 3, 3, 1, 1, 3, 4, 4, 1, 4 |
3, 5, 2, 3, 4, 3, 4, 4, 2, 5, 3, 5 |
2, 2, 1, 2, 4, 1, 2, 1, 5, 5, 1, 4 |
4, 4, 4, 4, 2, 1, 1, 5, 5, 1, 1, 2 |
2, 5, 5, 5, 2, 5, 5, 1, 2, 3, 2, 2 |
5, 4, 5, 4, 2, 1, 4, 2, 3, 1, 4, 4 |
5, 4, 2, 3, 3, 3, 1, 4, 3, 5, 3, 1 |
5, 1, 3, 2, 2, 3, 4, 4, 3, 5, 5, 3 |
3, 4, 1, 3, 2, 2, 4, 5, 3, 3, 5, 3 |
1, 1, 2, 2, 1, 4, 1, 3, 4, 5, 5, 1 |
2, 3, 5, 5, 1, 3, 1, 3, 2, 4, 3, 2 |
5, 3, 4, 3, 4, 4, 3, 5, 3, 1, 1, 3 |
1, 1, 4, 5, 1, 2, 3, 5, 2, 2, 5, 5 |
4, 5, 2, 1, 5, 5, 2, 4, 5, 2, 5, 3 |
4, 1, 4, 1, 2, 1, 1, 5, 1, 5, 4, 3 |
1, 5, 2, 3, 5, 3, 5, 1, 5, 2, 3, 5 |
2, 3, 4, 3, 1, 2, 1, 5, 4, 2, 5, 3 |
2, 3, 4, 5, 5, 1, 4, 2, 1, 4, 3, 3 |
5, 1, 3, 5, 1, 1, 3, 2, 4, 2, 2, 4 |
2, 1, 2, 3, 2, 4, 2, 2, 1, 1, 2, 3 |
1, 3, 1, 4, 5, 3, 2, 4, 4, 1, 2, 1 |
4, 1, 3, 3, 2, 4, 2, 3, 3, 3, 4, 1 |
1, 5, 2, 3, 5, 2, 3, 1, 5, 2, 4, 5 |
1, 4, 2, 2, 5, 2, 1, 3, 4, 5, 2, 3 |
4, 1, 5, 4, 1, 5, 1, 1, 5, 4, 4, 4 |
5, 4, 5, 2, 3, 3, 5, 5, 5, 2, 2, 5 |
5, 3, 4, 2, 4, 5, 5, 3, 1, 4, 5, 5 |
1, 4, 2, 5, 5, 3, 2, 3, 3, 2, 4, 4 |
4, 5, 4, 4, 3, 3, 5, 5, 1, 4, 3, 3 |
2, 4, 5, 2, 3, 3, 1, 2, 4, 2, 3, 5 |
2, 5, 3, 5, 4, 5, 1, 3, 3, 1, 1, 1 |
4, 4, 1, 5, 2, 2, 5, 2, 5, 4, 3, 2 |
1, 5, 3, 2, 5, 4, 1, 5, 3, 2, 5, 3 |
5, 2, 5, 2, 2, 4, 4, 3, 4, 5, 3, 5 |
3, 4, 4, 2, 5, 2, 2, 1, 2, 3, 2, 4 |
5, 3, 5, 1, 5, 5, 3, 2, 1, 3, 3, 5 |
5, 1, 1, 4, 4, 2, 3, 5, 2, 2, 2, 1 |
4, 1, 2, 3, 5, 2, 5, 3, 3, 4, 5, 5 |
2, 4, 5, 3, 4, 4, 4, 4, 5, 4, 1, 5 |
1, 2, 4, 3, 4, 3, 5, 3, 2, 1, 5, 2 |
2, 2, 2, 5, 5, 2, 3, 3, 1, 1, 5, 3 |
3, 5, 1, 2, 5, 4, 4, 2, 4, 2, 1, 4 |
2, 5, 5, 3, 4, 4, 2, 5, 4, 5, 1, 2 |
5, 4, 4, 3, 5, 1, 1, 2, 2, 2, 5, 4 |
2, 2, 5, 1, 2, 3, 3, 5, 5, 2, 1, 1 |
4, 2, 4, 4, 2, 5, 1, 4, 3, 1, 5, 1 |
3, 3, 2, 2, 1, 1, 2, 3, 4, 3, 3, 4 |
2, 4, 5, 4, 2, 4, 4, 2, 1, 2, 4, 4 |
3, 2, 4, 5, 1, 2, 5, 2, 3, 3, 1, 1 |
5, 4, 2, 1, 5, 4, 2, 4, 4, 2, 4, 3 |
2, 2, 1, 1, 3, 3, 5, 3, 3, 1, 5, 1 |
1, 1, 5, 4, 2, 4, 3, 3, 3, 1, 1, 5 |
3, 2, 4, 1, 4, 1, 2, 5, 5, 3, 2, 3 |
4, 5, 2, 5, 4, 4, 1, 5, 3, 5, 4, 3 |
3, 2, 3, 2, 2, 5, 2, 5, 5, 1, 1, 3 |
5, 5, 2, 4, 2, 3, 3, 5, 2, 5, 3, 2 |
5, 1, 1, 2, 1, 2, 3, 5, 3, 2, 5, 2 |
5, 2, 5, 2, 2, 5, 2, 5, 3, 3, 4, 1 |
4, 1, 3, 4, 1, 4, 3, 3, 3, 2, 5, 3 |
1, 1, 5, 5, 2, 1, 5, 1, 5, 1, 1, 4 |
5, 3, 5, 4, 1, 1, 1, 2, 2, 1, 1, 5 |
4, 3, 2, 3, 2, 1, 2, 1, 4, 1, 2, 3 |
3, 2, 1, 5, 4, 2, 5, 5, 3, 3, 1, 1 |
3, 1, 4, 1, 5, 1, 2, 2, 3, 5, 2, 2 |
2, 3, 4, 4, 1, 5, 4, 5, 3, 5, 1, 1 |];

PrefStudHosp =[|
2, 3 |
3, 4 |
3, 1 |
1, 4 |
5, 3 |
3, 1 |
2, 2 |
1, 1 |
1, 3 |
5, 5 |
4, 3 |
1, 4 |
5, 1 |
3, 1 |
3, 5 |
3, 1 |
1, 1 |
4, 1 |
4, 2 |
5, 1 |
1, 1 |
2, 3 |
4, 1 |
3, 4 |
4, 1 |
4, 1 |
1, 1 |
2, 2 |
1, 2 |
1, 4 |
2, 2 |
1, 2 |
2, 5 |
1, 1 |
2, 2 |
4, 2 |
3, 4 |
2, 4 |
2, 4 |
1, 2 |
4, 2 |
5, 5 |
1, 3 |
2, 3 |
5, 5 |
4, 1 |
4, 3 |
2, 2 |
2, 5 |
3, 3 |
2, 5 |
3, 5 |
5, 1 |
4, 3 |
2, 2 |
2, 5 |
1, 4 |
4, 5 |
3, 1 |
5, 5 |
2, 5 |
5, 3 |
5, 3 |
4, 4 |
4, 1 |
1, 5 |
4, 5 |
3, 3 |
3, 3 |
3, 1 |
4, 3 |
4, 3 |
4, 2 |
5, 1 |
2, 2 |
3, 4 |
2, 4 |
1, 3 |
3, 4 |
3, 1 |];

ManPref=[4,1,5,1,0,1,4,0,1,2,4,0];

%% Instance features:
%Scalars :80 , 12 , 2 , 24 , 2 , 0.916667
%Occupancy: 0.0632718
%Excess: 0.0690789
%Busyness: 0.475
%Density: 0.136364
%Depth: 2
